p cnf 294 2174
124 133 139 144 182 0
62 158 186 0
153 162 230 0
121 137 232 234 269 0
97 105 108 111 129 157 274 0
89 90 92 149 0
82 132 155 166 0
69 113 117 171 0
47 173 190 0
127 147 176 177 249 0
180 193 0
185 188 189 251 0
101 142 195 0
114 156 198 259 0
141 179 262 0
80 83 85 87 94 131 0
76 77 78 164 0
75 115 120 0
66 67 72 73 0
65 122 0
64 145 0
61 150 0
57 59 178 0
81 84 93 128 0
54 56 68 112 0
48 49 50 51 53 0
41 42 45 174 175 0
40 138 148 0
37 39 183 0
36 160 169 0
35 126 135 0
98 102 107 118 192 0
88 95 196 0
31 32 33 34 0
199 200 201 202 0
74 203 0
204 205 207 0
209 210 211 0
213 215 216 217 0
63 159 187 218 219 220 0
151 154 163 170 221 0
181 222 224 0
106 109 226 227 0
60 152 229 231 0
233 235 236 0
167 238 240 0
71 243 244 0
52 55 245 0
44 165 246 0
116 134 247 248 0
161 191 250 0
99 136 146 194 0
103 110 184 197 0
252 254 255 284 0
100 257 260 0
79 140 263 0
-87 -264 0
-164 -264 0
-87 -164 0
-265 -266 0
-112 -265 0
-53 -265 0
-45 -265 0
-112 -266 0
-53 -266 0
-45 -266 0
-53 -112 0
-45 -112 0
-45 -53 0
-192 -196 0
-192 -256 0
-34 -192 0
-192 -268 0
-196 -256 0
-34 -196 0
-196 -268 0
-34 -256 0
-256 -268 0
-34 -268 0
-209 -213 0
-123 -209 0
-209 -218 0
-151 -209 0
-209 -222 0
-123 -213 0
-213 -218 0
-151 -213 0
-213 -222 0
-123 -218 0
-123 -151 0
-123 -222 0
-151 -218 0
-218 -222 0
-151 -222 0
-130 -270 0
-167 -270 0
-243 -270 0
-55 -270 0
-165 -270 0
-130 -167 0
-130 -243 0
-55 -130 0
-130 -165 0
-167 -243 0
-55 -167 0
-165 -167 0
-55 -243 0
-165 -243 0
-55 -165 0
-146 -191 0
-103 -191 0
-191 -252 0
-191 -271 0
-100 -191 0
-103 -146 0
-146 -252 0
-146 -271 0
-100 -146 0
-103 -252 0
-103 -271 0
-100 -103 0
-252 -271 0
-100 -252 0
-100 -271 0
-192 -265 0
-209 -265 0
-265 -270 0
-191 -265 0
-192 -209 0
-192 -270 0
-191 -192 0
-209 -270 0
-191 -209 0
-191 -270 0
-196 -266 0
-213 -266 0
-130 -266 0
-146 -266 0
-196 -213 0
-130 -196 0
-146 -196 0
-130 -213 0
-146 -213 0
-130 -146 0
-112 -264 0
-256 -264 0
-123 -264 0
-167 -264 0
-103 -264 0
-112 -256 0
-112 -123 0
-112 -167 0
-103 -112 0
-123 -256 0
-167 -256 0
-103 -256 0
-123 -167 0
-103 -123 0
-103 -167 0
-53 -87 0
-34 -87 0
-87 -218 0
-87 -243 0
-87 -252 0
-34 -53 0
-53 -218 0
-53 -243 0
-53 -252 0
-34 -218 0
-34 -243 0
-34 -252 0
-218 -243 0
-218 -252 0
-243 -252 0
-45 -164 0
-164 -268 0
-151 -164 0
-55 -164 0
-164 -271 0
-45 -268 0
-45 -151 0
-45 -55 0
-45 -271 0
-151 -268 0
-55 -268 0
-268 -271 0
-55 -151 0
-151 -271 0
-55 -271 0
-165 -222 0
-100 -222 0
-100 -165 0
-232 -274 0
-92 -232 0
-232 -273 0
-82 -232 0
-92 -274 0
-273 -274 0
-82 -274 0
-92 -273 0
-82 -92 0
-82 -273 0
-85 -258 0
-78 -258 0
-73 -258 0
-206 -258 0
-78 -85 0
-73 -85 0
-85 -206 0
-73 -78 0
-78 -206 0
-73 -206 0
-56 -276 0
-51 -276 0
-174 -276 0
-51 -56 0
-56 -174 0
-51 -174 0
-98 -277 0
-33 -98 0
-98 -278 0
-33 -277 0
-277 -278 0
-33 -278 0
-219 -279 0
-221 -279 0
-226 -279 0
-229 -279 0
-219 -221 0
-219 -226 0
-219 -229 0
-221 -226 0
-221 -229 0
-226 -229 0
-238 -244 0
-238 -245 0
-238 -247 0
-238 -280 0
-244 -245 0
-244 -247 0
-244 -280 0
-245 -247 0
-245 -280 0
-247 -280 0
-98 -276 0
-232 -258 0
-56 -232 0
-232 -277 0
-232 -279 0
-232 -238 0
-56 -258 0
-258 -277 0
-258 -279 0
-238 -258 0
-56 -277 0
-56 -279 0
-56 -238 0
-277 -279 0
-238 -277 0
-238 -279 0
-85 -274 0
-51 -274 0
-33 -274 0
-219 -274 0
-244 -274 0
-51 -85 0
-33 -85 0
-85 -219 0
-85 -244 0
-33 -51 0
-51 -219 0
-51 -244 0
-33 -219 0
-33 -244 0
-219 -244 0
-78 -92 0
-92 -174 0
-92 -278 0
-92 -221 0
-92 -245 0
-78 -174 0
-78 -278 0
-78 -221 0
-78 -245 0
-174 -278 0
-174 -221 0
-174 -245 0
-221 -278 0
-245 -278 0
-221 -245 0
-73 -273 0
-226 -273 0
-247 -273 0
-73 -226 0
-73 -247 0
-226 -247 0
-82 -206 0
-82 -229 0
-82 -280 0
-206 -229 0
-206 -280 0
-229 -280 0
-124 -158 0
-124 -153 0
-111 -124 0
-90 -124 0
-58 -124 0
-124 -281 0
-124 -132 0
-153 -158 0
-111 -158 0
-90 -158 0
-58 -158 0
-158 -281 0
-132 -158 0
-111 -153 0
-90 -153 0
-58 -153 0
-153 -281 0
-132 -153 0
-90 -111 0
-58 -111 0
-111 -281 0
-111 -132 0
-58 -90 0
-90 -281 0
-90 -132 0
-58 -281 0
-58 -132 0
-132 -281 0
-171 -282 0
-282 -283 0
-176 -282 0
-180 -282 0
-185 -282 0
-282 -285 0
-142 -282 0
-171 -283 0
-171 -176 0
-171 -180 0
-171 -185 0
-171 -285 0
-142 -171 0
-176 -283 0
-180 -283 0
-185 -283 0
-283 -285 0
-142 -283 0
-176 -180 0
-176 -185 0
-176 -285 0
-142 -176 0
-180 -185 0
-180 -285 0
-142 -180 0
-185 -285 0
-142 -185 0
-142 -285 0
-114 -253 0
-114 -141 0
-94 -114 0
-77 -114 0
-75 -114 0
-72 -114 0
-114 -208 0
-141 -253 0
-94 -253 0
-77 -253 0
-75 -253 0
-72 -253 0
-208 -253 0
-94 -141 0
-77 -141 0
-75 -141 0
-72 -141 0
-141 -208 0
-77 -94 0
-75 -94 0
-72 -94 0
-94 -208 0
-75 -77 0
-72 -77 0
-77 -208 0
-72 -75 0
-75 -208 0
-72 -208 0
-65 -212 0
-64 -212 0
-212 -286 0
-212 -225 0
-212 -228 0
-59 -212 0
-212 -237 0
-64 -65 0
-65 -286 0
-65 -225 0
-65 -228 0
-59 -65 0
-65 -237 0
-64 -286 0
-64 -225 0
-64 -228 0
-59 -64 0
-64 -237 0
-225 -286 0
-228 -286 0
-59 -286 0
-237 -286 0
-225 -228 0
-59 -225 0
-225 -237 0
-59 -228 0
-228 -237 0
-59 -237 0
-84 -287 0
-84 -288 0
-50 -84 0
-42 -84 0
-40 -84 0
-39 -84 0
-36 -84 0
-287 -288 0
-50 -287 0
-42 -287 0
-40 -287 0
-39 -287 0
-36 -287 0
-50 -288 0
-42 -288 0
-40 -288 0
-39 -288 0
-36 -288 0
-42 -50 0
-40 -50 0
-39 -50 0
-36 -50 0
-40 -42 0
-39 -42 0
-36 -42 0
-39 -40 0
-36 -40 0
-36 -39 0
-35 -118 0
-35 -95 0
-32 -35 0
-35 -289 0
-35 -290 0
-35 -199 0
-35 -203 0
-95 -118 0
-32 -118 0
-118 -289 0
-118 -290 0
-118 -199 0
-118 -203 0
-32 -95 0
-95 -289 0
-95 -290 0
-95 -199 0
-95 -203 0
-32 -289 0
-32 -290 0
-32 -199 0
-32 -203 0
-289 -290 0
-199 -289 0
-203 -289 0
-199 -290 0
-203 -290 0
-199 -203 0
-233 -275 0
-91 -233 0
-233 -246 0
-233 -248 0
-233 -291 0
-91 -275 0
-246 -275 0
-248 -275 0
-275 -291 0
-91 -246 0
-91 -248 0
-91 -291 0
-246 -248 0
-246 -291 0
-248 -291 0
-38 -161 0
-38 -136 0
-38 -257 0
-38 -86 0
-38 -79 0
-136 -161 0
-161 -257 0
-86 -161 0
-79 -161 0
-136 -257 0
-86 -136 0
-79 -136 0
-86 -257 0
-79 -257 0
-79 -86 0
-124 -282 0
-114 -124 0
-124 -212 0
-84 -124 0
-35 -124 0
-124 -233 0
-38 -124 0
-114 -282 0
-212 -282 0
-84 -282 0
-35 -282 0
-233 -282 0
-38 -282 0
-114 -212 0
-84 -114 0
-35 -114 0
-114 -233 0
-38 -114 0
-84 -212 0
-35 -212 0
-212 -233 0
-38 -212 0
-35 -84 0
-84 -233 0
-38 -84 0
-35 -233 0
-35 -38 0
-38 -233 0
-158 -171 0
-158 -253 0
-65 -158 0
-158 -287 0
-118 -158 0
-158 -275 0
-158 -161 0
-171 -253 0
-65 -171 0
-171 -287 0
-118 -171 0
-171 -275 0
-161 -171 0
-65 -253 0
-253 -287 0
-118 -253 0
-253 -275 0
-161 -253 0
-65 -287 0
-65 -118 0
-65 -275 0
-65 -161 0
-118 -287 0
-275 -287 0
-161 -287 0
-118 -275 0
-118 -161 0
-161 -275 0
-153 -283 0
-141 -153 0
-64 -153 0
-153 -288 0
-95 -153 0
-91 -153 0
-136 -153 0
-141 -283 0
-64 -283 0
-283 -288 0
-95 -283 0
-91 -283 0
-136 -283 0
-64 -141 0
-141 -288 0
-95 -141 0
-91 -141 0
-136 -141 0
-64 -288 0
-64 -95 0
-64 -91 0
-64 -136 0
-95 -288 0
-91 -288 0
-136 -288 0
-91 -95 0
-95 -136 0
-91 -136 0
-111 -176 0
-94 -111 0
-111 -286 0
-50 -111 0
-32 -111 0
-94 -176 0
-176 -286 0
-50 -176 0
-32 -176 0
-94 -286 0
-50 -94 0
-32 -94 0
-50 -286 0
-32 -286 0
-32 -50 0
-90 -180 0
-77 -90 0
-90 -225 0
-42 -90 0
-90 -289 0
-77 -180 0
-180 -225 0
-42 -180 0
-180 -289 0
-77 -225 0
-42 -77 0
-77 -289 0
-42 -225 0
-225 -289 0
-42 -289 0
-58 -185 0
-58 -75 0
-58 -228 0
-40 -58 0
-58 -290 0
-58 -246 0
-58 -257 0
-75 -185 0
-185 -228 0
-40 -185 0
-185 -290 0
-185 -246 0
-185 -257 0
-75 -228 0
-40 -75 0
-75 -290 0
-75 -246 0
-75 -257 0
-40 -228 0
-228 -290 0
-228 -246 0
-228 -257 0
-40 -290 0
-40 -246 0
-40 -257 0
-246 -290 0
-257 -290 0
-246 -257 0
-281 -285 0
-72 -281 0
-59 -281 0
-39 -281 0
-199 -281 0
-248 -281 0
-86 -281 0
-72 -285 0
-59 -285 0
-39 -285 0
-199 -285 0
-248 -285 0
-86 -285 0
-59 -72 0
-39 -72 0
-72 -199 0
-72 -248 0
-72 -86 0
-39 -59 0
-59 -199 0
-59 -248 0
-59 -86 0
-39 -199 0
-39 -248 0
-39 -86 0
-199 -248 0
-86 -199 0
-86 -248 0
-132 -142 0
-132 -208 0
-132 -237 0
-36 -132 0
-132 -203 0
-132 -291 0
-79 -132 0
-142 -208 0
-142 -237 0
-36 -142 0
-142 -203 0
-142 -291 0
-79 -142 0
-208 -237 0
-36 -208 0
-203 -208 0
-208 -291 0
-79 -208 0
-36 -237 0
-203 -237 0
-237 -291 0
-79 -237 0
-36 -203 0
-36 -291 0
-36 -79 0
-203 -291 0
-79 -203 0
-79 -291 0
-162 -182 0
-137 -182 0
-108 -182 0
-89 -182 0
-137 -162 0
-108 -162 0
-89 -162 0
-108 -137 0
-89 -137 0
-89 -108 0
-179 -259 0
-259 -261 0
-131 -259 0
-76 -259 0
-179 -261 0
-131 -179 0
-76 -179 0
-131 -261 0
-76 -261 0
-76 -131 0
-145 -292 0
-61 -292 0
-292 -293 0
-292 -294 0
-61 -145 0
-145 -293 0
-145 -294 0
-61 -293 0
-61 -294 0
-293 -294 0
-93 -241 0
-68 -93 0
-49 -93 0
-41 -93 0
-68 -241 0
-49 -241 0
-41 -241 0
-49 -68 0
-41 -68 0
-41 -49 0
-125 -159 0
-125 -154 0
-125 -152 0
-154 -159 0
-152 -159 0
-152 -154 0
-184 -284 0
-143 -184 0
-140 -184 0
-143 -284 0
-140 -284 0
-140 -143 0
-182 -259 0
-182 -292 0
-93 -182 0
-259 -292 0
-93 -259 0
-93 -292 0
-162 -179 0
-145 -162 0
-162 -241 0
-145 -179 0
-179 -241 0
-145 -241 0
-137 -261 0
-61 -137 0
-68 -137 0
-125 -137 0
-137 -184 0
-61 -261 0
-68 -261 0
-125 -261 0
-184 -261 0
-61 -68 0
-61 -125 0
-61 -184 0
-68 -125 0
-68 -184 0
-125 -184 0
-108 -131 0
-108 -293 0
-49 -108 0
-108 -159 0
-108 -284 0
-131 -293 0
-49 -131 0
-131 -159 0
-131 -284 0
-49 -293 0
-159 -293 0
-284 -293 0
-49 -159 0
-49 -284 0
-159 -284 0
-76 -89 0
-89 -294 0
-41 -89 0
-89 -154 0
-89 -143 0
-76 -294 0
-41 -76 0
-76 -154 0
-76 -143 0
-41 -294 0
-154 -294 0
-143 -294 0
-41 -154 0
-41 -143 0
-143 -154 0
-140 -152 0
-133 -186 0
-121 -133 0
-133 -157 0
-133 -149 0
-121 -186 0
-157 -186 0
-149 -186 0
-121 -157 0
-121 -149 0
-149 -157 0
-113 -267 0
-47 -267 0
-127 -267 0
-193 -267 0
-47 -113 0
-113 -127 0
-113 -193 0
-47 -127 0
-47 -193 0
-127 -193 0
-122 -214 0
-150 -214 0
-214 -223 0
-119 -214 0
-96 -214 0
-178 -214 0
-122 -150 0
-122 -223 0
-119 -122 0
-96 -122 0
-122 -178 0
-150 -223 0
-119 -150 0
-96 -150 0
-150 -178 0
-119 -223 0
-96 -223 0
-178 -223 0
-96 -119 0
-119 -178 0
-96 -178 0
-128 -168 0
-54 -128 0
-48 -128 0
-128 -175 0
-128 -148 0
-128 -183 0
-54 -168 0
-48 -168 0
-168 -175 0
-148 -168 0
-168 -183 0
-48 -54 0
-54 -175 0
-54 -148 0
-54 -183 0
-48 -175 0
-48 -148 0
-48 -183 0
-148 -175 0
-175 -183 0
-148 -183 0
-102 -126 0
-126 -272 0
-31 -126 0
-30 -126 0
-29 -126 0
-126 -200 0
-102 -272 0
-31 -102 0
-30 -102 0
-29 -102 0
-102 -200 0
-31 -272 0
-30 -272 0
-29 -272 0
-200 -272 0
-30 -31 0
-29 -31 0
-31 -200 0
-29 -30 0
-30 -200 0
-29 -200 0
-28 -220 0
-28 -163 0
-28 -181 0
-28 -109 0
-163 -220 0
-181 -220 0
-109 -220 0
-163 -181 0
-109 -163 0
-109 -181 0
-110 -254 0
-27 -110 0
-110 -260 0
-26 -110 0
-27 -254 0
-254 -260 0
-26 -254 0
-27 -260 0
-26 -27 0
-26 -260 0
-133 -267 0
-133 -214 0
-128 -133 0
-126 -133 0
-214 -267 0
-128 -267 0
-126 -267 0
-128 -214 0
-126 -214 0
-126 -128 0
-113 -186 0
-122 -186 0
-168 -186 0
-102 -186 0
-113 -122 0
-113 -168 0
-102 -113 0
-122 -168 0
-102 -122 0
-102 -168 0
-47 -121 0
-121 -150 0
-54 -121 0
-121 -272 0
-28 -121 0
-110 -121 0
-47 -150 0
-47 -54 0
-47 -272 0
-28 -47 0
-47 -110 0
-54 -150 0
-150 -272 0
-28 -150 0
-110 -150 0
-54 -272 0
-28 -54 0
-54 -110 0
-28 -272 0
-110 -272 0
-28 -110 0
-127 -157 0
-157 -223 0
-48 -157 0
-31 -157 0
-157 -220 0
-157 -254 0
-127 -223 0
-48 -127 0
-31 -127 0
-127 -220 0
-127 -254 0
-48 -223 0
-31 -223 0
-220 -223 0
-223 -254 0
-31 -48 0
-48 -220 0
-48 -254 0
-31 -220 0
-31 -254 0
-220 -254 0
-149 -193 0
-119 -149 0
-149 -175 0
-30 -149 0
-149 -163 0
-27 -149 0
-119 -193 0
-175 -193 0
-30 -193 0
-163 -193 0
-27 -193 0
-119 -175 0
-30 -119 0
-119 -163 0
-27 -119 0
-30 -175 0
-163 -175 0
-27 -175 0
-30 -163 0
-27 -30 0
-27 -163 0
-96 -148 0
-29 -96 0
-96 -181 0
-96 -260 0
-29 -148 0
-148 -181 0
-148 -260 0
-29 -181 0
-29 -260 0
-181 -260 0
-178 -183 0
-178 -200 0
-109 -178 0
-26 -178 0
-183 -200 0
-109 -183 0
-26 -183 0
-109 -200 0
-26 -200 0
-26 -109 0
-139 -230 0
-139 -234 0
-105 -139 0
-25 -139 0
-24 -139 0
-230 -234 0
-105 -230 0
-25 -230 0
-24 -230 0
-105 -234 0
-25 -234 0
-24 -234 0
-25 -105 0
-24 -105 0
-24 -25 0
-22 -23 0
-23 -173 0
-23 -249 0
-23 -188 0
-20 -23 0
-22 -173 0
-22 -249 0
-22 -188 0
-20 -22 0
-173 -249 0
-173 -188 0
-20 -173 0
-188 -249 0
-20 -249 0
-20 -188 0
-156 -262 0
-19 -156 0
-83 -156 0
-120 -156 0
-67 -156 0
-19 -262 0
-83 -262 0
-120 -262 0
-67 -262 0
-19 -83 0
-19 -120 0
-19 -67 0
-83 -120 0
-67 -83 0
-67 -120 0
-18 -201 0
-204 -215 0
-17 -204 0
-187 -204 0
-17 -215 0
-187 -215 0
-17 -187 0
-46 -194 0
-46 -197 0
-46 -255 0
-194 -197 0
-194 -255 0
-197 -255 0
-23 -139 0
-139 -156 0
-139 -204 0
-46 -139 0
-23 -156 0
-23 -204 0
-23 -46 0
-156 -204 0
-46 -156 0
-46 -204 0
-22 -230 0
-230 -262 0
-215 -230 0
-194 -230 0
-22 -262 0
-22 -215 0
-22 -194 0
-215 -262 0
-194 -262 0
-194 -215 0
-173 -234 0
-19 -234 0
-17 -234 0
-197 -234 0
-19 -173 0
-17 -173 0
-173 -197 0
-17 -19 0
-19 -197 0
-17 -197 0
-105 -249 0
-83 -105 0
-105 -187 0
-105 -255 0
-83 -249 0
-187 -249 0
-249 -255 0
-83 -187 0
-83 -255 0
-187 -255 0
-25 -188 0
-25 -120 0
-18 -25 0
-120 -188 0
-18 -188 0
-18 -120 0
-20 -24 0
-24 -67 0
-24 -201 0
-20 -67 0
-20 -201 0
-67 -201 0
-43 -117 0
-16 -43 0
-16 -117 0
-14 -81 0
-13 -81 0
-37 -81 0
-81 -160 0
-13 -14 0
-14 -37 0
-14 -160 0
-13 -37 0
-13 -160 0
-37 -160 0
-107 -135 0
-88 -135 0
-135 -202 0
-74 -135 0
-88 -107 0
-107 -202 0
-74 -107 0
-88 -202 0
-74 -88 0
-74 -202 0
-205 -210 0
-205 -216 0
-170 -205 0
-106 -205 0
-205 -231 0
-210 -216 0
-170 -210 0
-106 -210 0
-210 -231 0
-170 -216 0
-106 -216 0
-216 -231 0
-106 -170 0
-170 -231 0
-106 -231 0
-104 -235 0
-12 -235 0
-52 -235 0
-134 -235 0
-21 -235 0
-12 -104 0
-52 -104 0
-104 -134 0
-21 -104 0
-12 -52 0
-12 -134 0
-12 -21 0
-52 -134 0
-21 -52 0
-21 -134 0
-172 -250 0
-99 -172 0
-11 -172 0
-10 -172 0
-172 -263 0
-99 -250 0
-11 -250 0
-10 -250 0
-250 -263 0
-11 -99 0
-10 -99 0
-99 -263 0
-10 -11 0
-11 -263 0
-10 -263 0
-43 -81 0
-43 -135 0
-43 -205 0
-43 -235 0
-43 -172 0
-81 -135 0
-81 -205 0
-81 -235 0
-81 -172 0
-135 -205 0
-135 -235 0
-135 -172 0
-205 -235 0
-172 -205 0
-172 -235 0
-14 -117 0
-107 -117 0
-117 -210 0
-104 -117 0
-117 -250 0
-14 -107 0
-14 -210 0
-14 -104 0
-14 -250 0
-107 -210 0
-104 -107 0
-107 -250 0
-104 -210 0
-210 -250 0
-104 -250 0
-13 -16 0
-16 -88 0
-16 -216 0
-12 -16 0
-16 -99 0
-13 -88 0
-13 -216 0
-12 -13 0
-13 -99 0
-88 -216 0
-12 -88 0
-88 -99 0
-12 -216 0
-99 -216 0
-12 -99 0
-52 -170 0
-11 -170 0
-11 -52 0
-37 -202 0
-37 -106 0
-37 -134 0
-10 -37 0
-106 -202 0
-134 -202 0
-10 -202 0
-106 -134 0
-10 -106 0
-10 -134 0
-74 -160 0
-160 -231 0
-21 -160 0
-160 -263 0
-74 -231 0
-21 -74 0
-74 -263 0
-21 -231 0
-231 -263 0
-21 -263 0
-62 -144 0
-97 -144 0
-144 -239 0
-70 -144 0
-144 -155 0
-62 -97 0
-62 -239 0
-62 -70 0
-62 -155 0
-97 -239 0
-70 -97 0
-97 -155 0
-70 -239 0
-155 -239 0
-70 -155 0
-9 -69 0
-9 -177 0
-9 -189 0
-8 -9 0
-9 -195 0
-69 -177 0
-69 -189 0
-8 -69 0
-69 -195 0
-177 -189 0
-8 -177 0
-177 -195 0
-8 -189 0
-189 -195 0
-8 -195 0
-7 -198 0
-80 -198 0
-115 -198 0
-66 -198 0
-6 -198 0
-7 -80 0
-7 -115 0
-7 -66 0
-6 -7 0
-80 -115 0
-66 -80 0
-6 -80 0
-66 -115 0
-6 -115 0
-6 -66 0
-5 -57 0
-4 -5 0
-4 -57 0
-207 -211 0
-207 -224 0
-207 -227 0
-60 -207 0
-211 -224 0
-211 -227 0
-60 -211 0
-224 -227 0
-60 -224 0
-60 -227 0
-3 -236 0
-44 -236 0
-116 -236 0
-15 -236 0
-3 -44 0
-3 -116 0
-3 -15 0
-44 -116 0
-15 -44 0
-15 -116 0
-9 -144 0
-144 -198 0
-144 -207 0
-144 -236 0
-9 -198 0
-9 -207 0
-9 -236 0
-198 -207 0
-198 -236 0
-207 -236 0
-62 -69 0
-7 -62 0
-62 -211 0
-3 -62 0
-7 -69 0
-69 -211 0
-3 -69 0
-7 -211 0
-3 -7 0
-3 -211 0
-97 -177 0
-80 -97 0
-80 -177 0
-189 -239 0
-115 -239 0
-5 -239 0
-224 -239 0
-44 -239 0
-115 -189 0
-5 -189 0
-189 -224 0
-44 -189 0
-5 -115 0
-115 -224 0
-44 -115 0
-5 -224 0
-5 -44 0
-44 -224 0
-8 -70 0
-66 -70 0
-57 -70 0
-70 -227 0
-70 -116 0
-8 -66 0
-8 -57 0
-8 -227 0
-8 -116 0
-57 -66 0
-66 -227 0
-66 -116 0
-57 -227 0
-57 -116 0
-116 -227 0
-155 -195 0
-6 -155 0
-4 -155 0
-60 -155 0
-15 -155 0
-6 -195 0
-4 -195 0
-60 -195 0
-15 -195 0
-4 -6 0
-6 -60 0
-6 -15 0
-4 -60 0
-4 -15 0
-15 -60 0
-129 -269 0
-242 -269 0
-166 -269 0
-129 -242 0
-129 -166 0
-166 -242 0
-147 -190 0
-190 -251 0
-101 -190 0
-147 -251 0
-101 -147 0
-101 -251 0
-138 -169 0
-2 -217 0
-63 -217 0
-2 -63 0
-1 -240 0
-1 -71 0
-71 -240 0
-1 -217 0
-190 -269 0
-2 -269 0
-240 -269 0
-2 -190 0
-190 -240 0
-2 -240 0
-129 -147 0
-63 -129 0
-71 -129 0
-63 -147 0
-71 -147 0
-63 -71 0
-242 -251 0
-138 -242 0
-138 -251 0
-101 -166 0
-166 -169 0
-101 -169 0
-124 -158 0
-124 -153 0
-124 -282 0
-124 -171 0
-124 -283 0
-114 -124 0
-124 -253 0
-124 -141 0
-153 -158 0
-158 -282 0
-158 -171 0
-158 -283 0
-114 -158 0
-158 -253 0
-141 -158 0
-153 -282 0
-153 -171 0
-153 -283 0
-114 -153 0
-153 -253 0
-141 -153 0
-171 -282 0
-282 -283 0
-114 -282 0
-253 -282 0
-141 -282 0
-171 -283 0
-114 -171 0
-171 -253 0
-141 -171 0
-114 -283 0
-253 -283 0
-141 -283 0
-114 -253 0
-114 -141 0
-141 -253 0
-162 -182 0
-182 -259 0
-179 -182 0
-162 -259 0
-162 -179 0
-179 -259 0
-133 -186 0
-133 -267 0
-113 -133 0
-186 -267 0
-113 -186 0
-113 -267 0
-139 -230 0
-23 -139 0
-22 -139 0
-139 -156 0
-139 -262 0
-23 -230 0
-22 -230 0
-156 -230 0
-230 -262 0
-22 -23 0
-23 -156 0
-23 -262 0
-22 -156 0
-22 -262 0
-156 -262 0
-43 -117 0
-16 -43 0
-16 -117 0
-62 -144 0
-9 -144 0
-69 -144 0
-144 -198 0
-7 -144 0
-9 -62 0
-62 -69 0
-62 -198 0
-7 -62 0
-9 -69 0
-9 -198 0
-7 -9 0
-69 -198 0
-7 -69 0
-7 -198 0
-87 -264 0
-164 -264 0
-87 -164 0
-232 -274 0
-92 -232 0
-232 -258 0
-85 -232 0
-78 -232 0
-92 -274 0
-258 -274 0
-85 -274 0
-78 -274 0
-92 -258 0
-85 -92 0
-78 -92 0
-85 -258 0
-78 -258 0
-78 -85 0
-90 -111 0
-111 -176 0
-111 -180 0
-94 -111 0
-77 -111 0
-90 -176 0
-90 -180 0
-90 -94 0
-77 -90 0
-176 -180 0
-94 -176 0
-77 -176 0
-94 -180 0
-77 -180 0
-77 -94 0
-108 -137 0
-89 -137 0
-137 -261 0
-131 -137 0
-76 -137 0
-89 -108 0
-108 -261 0
-108 -131 0
-76 -108 0
-89 -261 0
-89 -131 0
-76 -89 0
-131 -261 0
-76 -261 0
-76 -131 0
-121 -157 0
-121 -149 0
-47 -121 0
-121 -127 0
-121 -193 0
-149 -157 0
-47 -157 0
-127 -157 0
-157 -193 0
-47 -149 0
-127 -149 0
-149 -193 0
-47 -127 0
-47 -193 0
-127 -193 0
-105 -234 0
-173 -234 0
-234 -249 0
-19 -234 0
-83 -234 0
-105 -173 0
-105 -249 0
-19 -105 0
-83 -105 0
-173 -249 0
-19 -173 0
-83 -173 0
-19 -249 0
-83 -249 0
-19 -83 0
-97 -177 0
-80 -97 0
-80 -177 0
-129 -269 0
-190 -269 0
-147 -269 0
-129 -190 0
-129 -147 0
-147 -190 0
-82 -273 0
-73 -273 0
-206 -273 0
-73 -82 0
-82 -206 0
-73 -206 0
-58 -281 0
-58 -132 0
-58 -185 0
-58 -285 0
-58 -142 0
-58 -75 0
-58 -72 0
-58 -208 0
-132 -281 0
-185 -281 0
-281 -285 0
-142 -281 0
-75 -281 0
-72 -281 0
-208 -281 0
-132 -185 0
-132 -285 0
-132 -142 0
-75 -132 0
-72 -132 0
-132 -208 0
-185 -285 0
-142 -185 0
-75 -185 0
-72 -185 0
-185 -208 0
-142 -285 0
-75 -285 0
-72 -285 0
-208 -285 0
-75 -142 0
-72 -142 0
-142 -208 0
-72 -75 0
-75 -208 0
-72 -208 0
-24 -25 0
-25 -188 0
-20 -25 0
-25 -120 0
-25 -67 0
-24 -188 0
-20 -24 0
-24 -120 0
-24 -67 0
-20 -188 0
-120 -188 0
-67 -188 0
-20 -120 0
-20 -67 0
-67 -120 0
-70 -239 0
-155 -239 0
-189 -239 0
-8 -239 0
-195 -239 0
-115 -239 0
-66 -239 0
-6 -239 0
-70 -155 0
-70 -189 0
-8 -70 0
-70 -195 0
-70 -115 0
-66 -70 0
-6 -70 0
-155 -189 0
-8 -155 0
-155 -195 0
-115 -155 0
-66 -155 0
-6 -155 0
-8 -189 0
-189 -195 0
-115 -189 0
-66 -189 0
-6 -189 0
-8 -195 0
-8 -115 0
-8 -66 0
-6 -8 0
-115 -195 0
-66 -195 0
-6 -195 0
-66 -115 0
-6 -115 0
-6 -66 0
-166 -242 0
-242 -251 0
-101 -242 0
-166 -251 0
-101 -166 0
-101 -251 0
-265 -266 0
-192 -265 0
-196 -265 0
-192 -266 0
-196 -266 0
-192 -196 0
-98 -276 0
-65 -212 0
-64 -212 0
-84 -212 0
-212 -287 0
-212 -288 0
-35 -212 0
-118 -212 0
-95 -212 0
-64 -65 0
-65 -84 0
-65 -287 0
-65 -288 0
-35 -65 0
-65 -118 0
-65 -95 0
-64 -84 0
-64 -287 0
-64 -288 0
-35 -64 0
-64 -118 0
-64 -95 0
-84 -287 0
-84 -288 0
-35 -84 0
-84 -118 0
-84 -95 0
-287 -288 0
-35 -287 0
-118 -287 0
-95 -287 0
-35 -288 0
-118 -288 0
-95 -288 0
-35 -118 0
-35 -95 0
-95 -118 0
-145 -292 0
-93 -292 0
-241 -292 0
-93 -145 0
-145 -241 0
-93 -241 0
-122 -214 0
-128 -214 0
-168 -214 0
-126 -214 0
-102 -214 0
-122 -128 0
-122 -168 0
-122 -126 0
-102 -122 0
-128 -168 0
-126 -128 0
-102 -128 0
-126 -168 0
-102 -168 0
-102 -126 0
-14 -81 0
-13 -81 0
-81 -135 0
-81 -107 0
-81 -88 0
-13 -14 0
-14 -135 0
-14 -107 0
-14 -88 0
-13 -135 0
-13 -107 0
-13 -88 0
-107 -135 0
-88 -135 0
-88 -107 0
-53 -112 0
-45 -112 0
-112 -256 0
-34 -112 0
-112 -268 0
-45 -53 0
-53 -256 0
-34 -53 0
-53 -268 0
-45 -256 0
-34 -45 0
-45 -268 0
-34 -256 0
-256 -268 0
-34 -268 0
-51 -56 0
-56 -174 0
-56 -277 0
-33 -56 0
-56 -278 0
-51 -174 0
-51 -277 0
-33 -51 0
-51 -278 0
-174 -277 0
-33 -174 0
-174 -278 0
-33 -277 0
-277 -278 0
-33 -278 0
-225 -286 0
-50 -286 0
-42 -286 0
-32 -286 0
-286 -289 0
-50 -225 0
-42 -225 0
-32 -225 0
-225 -289 0
-42 -50 0
-32 -50 0
-50 -289 0
-32 -42 0
-42 -289 0
-32 -289 0
-61 -293 0
-61 -294 0
-61 -68 0
-49 -61 0
-41 -61 0
-293 -294 0
-68 -293 0
-49 -293 0
-41 -293 0
-68 -294 0
-49 -294 0
-41 -294 0
-49 -68 0
-41 -68 0
-41 -49 0
-150 -223 0
-119 -150 0
-54 -150 0
-48 -150 0
-150 -175 0
-150 -272 0
-31 -150 0
-30 -150 0
-119 -223 0
-54 -223 0
-48 -223 0
-175 -223 0
-223 -272 0
-31 -223 0
-30 -223 0
-54 -119 0
-48 -119 0
-119 -175 0
-119 -272 0
-31 -119 0
-30 -119 0
-48 -54 0
-54 -175 0
-54 -272 0
-31 -54 0
-30 -54 0
-48 -175 0
-48 -272 0
-31 -48 0
-30 -48 0
-175 -272 0
-31 -175 0
-30 -175 0
-31 -272 0
-30 -272 0
-30 -31 0
-59 -228 0
-228 -237 0
-40 -228 0
-39 -228 0
-36 -228 0
-228 -290 0
-199 -228 0
-203 -228 0
-59 -237 0
-40 -59 0
-39 -59 0
-36 -59 0
-59 -290 0
-59 -199 0
-59 -203 0
-40 -237 0
-39 -237 0
-36 -237 0
-237 -290 0
-199 -237 0
-203 -237 0
-39 -40 0
-36 -40 0
-40 -290 0
-40 -199 0
-40 -203 0
-36 -39 0
-39 -290 0
-39 -199 0
-39 -203 0
-36 -290 0
-36 -199 0
-36 -203 0
-199 -290 0
-203 -290 0
-199 -203 0
-96 -178 0
-96 -148 0
-96 -183 0
-29 -96 0
-96 -200 0
-148 -178 0
-178 -183 0
-29 -178 0
-178 -200 0
-148 -183 0
-29 -148 0
-148 -200 0
-29 -183 0
-183 -200 0
-29 -200 0
-18 -201 0
-37 -160 0
-37 -202 0
-37 -74 0
-160 -202 0
-74 -160 0
-74 -202 0
-5 -57 0
-4 -5 0
-4 -57 0
-138 -169 0
-209 -213 0
-209 -270 0
-130 -209 0
-191 -209 0
-146 -209 0
-213 -270 0
-130 -213 0
-191 -213 0
-146 -213 0
-130 -270 0
-191 -270 0
-146 -270 0
-130 -191 0
-130 -146 0
-146 -191 0
-233 -275 0
-91 -233 0
-38 -233 0
-161 -233 0
-136 -233 0
-91 -275 0
-38 -275 0
-161 -275 0
-136 -275 0
-38 -91 0
-91 -161 0
-91 -136 0
-38 -161 0
-38 -136 0
-136 -161 0
-204 -215 0
-46 -204 0
-194 -204 0
-46 -215 0
-194 -215 0
-46 -194 0
-205 -210 0
-205 -216 0
-205 -235 0
-104 -205 0
-12 -205 0
-172 -205 0
-205 -250 0
-99 -205 0
-210 -216 0
-210 -235 0
-104 -210 0
-12 -210 0
-172 -210 0
-210 -250 0
-99 -210 0
-216 -235 0
-104 -216 0
-12 -216 0
-172 -216 0
-216 -250 0
-99 -216 0
-104 -235 0
-12 -235 0
-172 -235 0
-235 -250 0
-99 -235 0
-12 -104 0
-104 -172 0
-104 -250 0
-99 -104 0
-12 -172 0
-12 -250 0
-12 -99 0
-172 -250 0
-99 -172 0
-99 -250 0
-207 -211 0
-207 -236 0
-3 -207 0
-211 -236 0
-3 -211 0
-3 -236 0
-1 -217 0
-123 -218 0
-123 -151 0
-123 -167 0
-123 -243 0
-55 -123 0
-103 -123 0
-123 -252 0
-123 -271 0
-151 -218 0
-167 -218 0
-218 -243 0
-55 -218 0
-103 -218 0
-218 -252 0
-218 -271 0
-151 -167 0
-151 -243 0
-55 -151 0
-103 -151 0
-151 -252 0
-151 -271 0
-167 -243 0
-55 -167 0
-103 -167 0
-167 -252 0
-167 -271 0
-55 -243 0
-103 -243 0
-243 -252 0
-243 -271 0
-55 -103 0
-55 -252 0
-55 -271 0
-103 -252 0
-103 -271 0
-252 -271 0
-219 -279 0
-221 -279 0
-238 -279 0
-244 -279 0
-245 -279 0
-219 -221 0
-219 -238 0
-219 -244 0
-219 -245 0
-221 -238 0
-221 -244 0
-221 -245 0
-238 -244 0
-238 -245 0
-244 -245 0
-125 -159 0
-125 -154 0
-125 -184 0
-125 -284 0
-125 -143 0
-154 -159 0
-159 -184 0
-159 -284 0
-143 -159 0
-154 -184 0
-154 -284 0
-143 -154 0
-184 -284 0
-143 -184 0
-143 -284 0
-28 -220 0
-28 -163 0
-28 -110 0
-28 -254 0
-27 -28 0
-163 -220 0
-110 -220 0
-220 -254 0
-27 -220 0
-110 -163 0
-163 -254 0
-27 -163 0
-110 -254 0
-27 -110 0
-27 -254 0
-17 -187 0
-17 -197 0
-17 -255 0
-187 -197 0
-187 -255 0
-197 -255 0
-52 -170 0
-11 -170 0
-11 -52 0
-2 -63 0
-2 -240 0
-2 -71 0
-63 -240 0
-63 -71 0
-71 -240 0
-165 -222 0
-100 -222 0
-100 -165 0
-226 -229 0
-226 -247 0
-226 -280 0
-229 -247 0
-229 -280 0
-247 -280 0
-246 -248 0
-246 -291 0
-246 -257 0
-86 -246 0
-79 -246 0
-248 -291 0
-248 -257 0
-86 -248 0
-79 -248 0
-257 -291 0
-86 -291 0
-79 -291 0
-86 -257 0
-79 -257 0
-79 -86 0
-140 -152 0
-109 -181 0
-181 -260 0
-26 -181 0
-109 -260 0
-26 -109 0
-26 -260 0
-106 -231 0
-106 -134 0
-21 -106 0
-10 -106 0
-106 -263 0
-134 -231 0
-21 -231 0
-10 -231 0
-231 -263 0
-21 -134 0
-10 -134 0
-134 -263 0
-10 -21 0
-21 -263 0
-10 -263 0
-224 -227 0
-60 -224 0
-44 -224 0
-116 -224 0
-15 -224 0
-60 -227 0
-44 -227 0
-116 -227 0
-15 -227 0
-44 -60 0
-60 -116 0
-15 -60 0
-44 -116 0
-15 -44 0
-15 -116 0
